%
% Generated Sudoku 16x16
% Density approximation: 0.60
%
x = array2d(1..n, 1..n, [
   _,  16,   8,   6,   9,  11,   _,  13,   3,  10,   2,   4,   _,   _,   _,   1,
   9,   _,   2,   _,  16,   _,  12,  10,   6,   5,  13,  14,   3,   _,   _,   _,
   _,   _,   _,   _,   _,   6,   3,   _,   _,   _,   _,   7,   _,  11,  10,   9,
   3,   1,  12,   _,   2,   7,  14,   4,  15,  11,   8,   9,   _,   _,   _,  13,
   5,   2,   9,   7,  13,  12,   8,  14,   _,   6,   _,   _,   4,   1,   _,  15,
  10,   6,   _,   4,   _,  15,  16,   _,   2,  12,   3,   _,  13,   8,   _,   5,
   _,  12,   _,   8,   5,   _,   _,   _,   4,   _,   _,  13,   7,   6,   _,  16,
   _,   _,   _,  16,   1,   3,   4,   6,   8,   9,   7,   5,  10,   _,   _,  12,
   2,   5,  15,  14,   _,   9,   6,  12,   _,  16,  10,   _,  11,   7,   1,   4,
  16,   _,   1,   9,   _,   4,  13,   7,   _,  15,   _,   _,   6,   3,   5,   2,
   4,   3,   _,   _,   _,   8,  11,  16,   1,   _,   _,   _,   9,   _,  12,   _,
  11,  10,   6,   _,  14,   _,   1,   _,   _,   _,   4,   _,   _,   _,   _,   8,
   _,   9,   _,   _,   _,  16,   7,   _,  10,   8,   _,  11,   1,   _,   2,   6,
   6,   4,   _,   _,  11,  10,  15,   _,   _,   _,   9,   _,   _,   _,   7,   3,
   8,   7,  10,   _,   _,   _,   _,   3,   5,   4,   6,  15,  14,   9,  16,  11,
   _,   _,   _,   _,   6,   _,   9,   _,   _,   _,   1,   _,   5,   _,   4,   _
]);

n = 16;
